mixintcount/benchmarks/random_v2l/5_5_70.smt2
(set-logic QF_LIA)
(set-info :ran/ran2.smt2)
(set-info :smt-lib-version 2.0)
(declare-fun x1 () Int)
(declare-fun x2 () Int)
(declare-fun x3 () Int)
(declare-fun x4 () Int)
(declare-fun x5 () Int)
(assert (<= (+ (* 1 x1) (* 7 x2) (* 10 x3) (* 10 x4) (* 3 x5) ) 56))
(assert (<= (+ (* (- 8) x1) (* 4 x2) (* (- 10) x3) (* (- 6) x4) (* 2 x5) ) (- 67)))
(assert (<= (+ (* (- 9) x1) (* 6 x2) (* (- 3) x3) (* (- 8) x4) (* (- 2) x5) ) 10))
(assert (<= (+ (* 10 x1) (* (- 8) x2) (* 10 x3) (* (- 1) x4) (* (- 5) x5) ) 53))
(assert (<= (+ (* 5 x1) (* 5 x2) (* (- 8) x3) (* 3 x4) (* (- 10) x5) ) (- 20)))
(assert (<= (+ (* (- 4) x1) (* 1 x2) (* (- 2) x3) (* (- 7) x4) (* (- 2) x5) ) (- 46)))
(assert (<= (+ (* 9 x1) (* 1 x2) (* 3 x3) (* 9 x4) (* 3 x5) ) 45))
(assert (<= (+ (* (- 6) x1) (* 4 x2) (* (- 10) x3) (* 1 x4) (* 4 x5) ) 18))
(assert (<= (+ (* (- 10) x1) (* 4 x2) (* (- 3) x3) (* 8 x4) (* (- 8) x5) ) 53))
(assert (<= (+ (* (- 10) x1) (* 5 x2) (* (- 3) x3) (* (- 8) x4) (* (- 4) x5) ) (- 25)))
(assert (<= (+ (* 1 x1) (* 0 x2) (* 0 x3) (* 0 x4) (* 0 x5) ) 70))
(assert (<= (+ (* (- 1) x1) (* 0 x2) (* 0 x3) (* 0 x4) (* 0 x5) ) 70))
(assert (<= (+ (* 0 x1) (* 1 x2) (* 0 x3) (* 0 x4) (* 0 x5) ) 70))
(assert (<= (+ (* 0 x1) (* (- 1) x2) (* 0 x3) (* 0 x4) (* 0 x5) ) 70))
(assert (<= (+ (* 0 x1) (* 0 x2) (* 1 x3) (* 0 x4) (* 0 x5) ) 70))
(assert (<= (+ (* 0 x1) (* 0 x2) (* (- 1) x3) (* 0 x4) (* 0 x5) ) 70))
(assert (<= (+ (* 0 x1) (* 0 x2) (* 0 x3) (* 1 x4) (* 0 x5) ) 70))
(assert (<= (+ (* 0 x1) (* 0 x2) (* 0 x3) (* (- 1) x4) (* 0 x5) ) 70))
(assert (<= (+ (* 0 x1) (* 0 x2) (* 0 x3) (* 0 x4) (* 1 x5) ) 70))
(assert (<= (+ (* 0 x1) (* 0 x2) (* 0 x3) (* 0 x4) (* (- 1) x5) ) 70))
