mixintcount/benchmarks/random_v2l/5_5_70.in
20 7
#	x1	x2	x3	x4	x5;		0 = Real; 1 = Integer
	1	1	1	1	1
1	1	7	10	10	3	56
1	-8	4	-10	-6	2	-67
1	-9	6	-3	-8	-2	10
1	10	-8	10	-1	-5	53
1	5	5	-8	3	-10	-20
1	-4	1	-2	-7	-2	-46
1	9	1	3	9	3	45
1	-6	4	-10	1	4	18
1	-10	4	-3	8	-8	53
1	-10	5	-3	-8	-4	-25
1	1	0	0	0	0	70
1	-1	0	0	0	0	70
1	0	1	0	0	0	70
1	0	-1	0	0	0	70
1	0	0	1	0	0	70
1	0	0	-1	0	0	70
1	0	0	0	1	0	70
1	0	0	0	-1	0	70
1	0	0	0	0	1	70
1	0	0	0	0	-1	70
